N = 7;
H = 6;
T = 2;

avail = array3d(1..N, 1..H, 1..T, [3, 1, 1, 6, 2, 9, 2, 6, 3, 5, 5, 2, 8, 9, 7, 6, 0, 1, 10, 7, 9, 4, 4, 1, 8, 4, 7, 7, 2, 1, 9, 6, 10, 8, 0, 6, 3, 6, 0, 2, 0, 7, 7, 9, 9, 7, 0, 3, 0, 3, 8, 5, 0, 6, 10, 3, 7, 2, 9, 6, 5, 4, 0, 9, 0, 0, 2, 10, 8, 6, 4, 6, 6, 6, 4, 0, 7, 4, 8, 2, 3, 3, 3, 2]);

r = array2d(1..H, 1..T, [3, 2, 0, 3, 3, 0, 3, 2, 0, 1, 2, 2]);
